problems/csplib-prob056/sonet-models/noch/O0/minion/model_6-s2ring10-solution000001.solution
language Essence 1.3

letting network be mset({}, {}, {1, 2, 3, 4, 5}, {1, 2, 3, 4, 5}, {1, 7, 9, 10}, {4, 5, 6, 7, 8})
$ Visualisation for network
$ 
$ 
$  1  2  3  4  5
$  1  2  3  4  5
$  1  7  9 10
$  4  5  6  7  8

